/*********************************************
 * OPL 12.6.3.0 Data
 * Author: krishnam
 * Creation Date: 25-Mar-2018 at 1:25:50 PM
 *********************************************/
n = 13;

v = [250000, 50000, 200000, 400000, 120000, 120000, 120000, 30000, 100000, 100000, 150000, 100000, 130000];